maximize
7x0_0 + 53x0_1 + 183x0_2 + 439x0_3 + 863x0_4 + 497x0_5 + 383x0_6 + 563x0_7 + 79x0_8 + 973x0_9 + 287x0_10 + 63x0_11 + 343x0_12 + 169x0_13 + 583x0_14 + 627x1_0 + 343x1_1 + 773x1_2 + 959x1_3 + 943x1_4 + 767x1_5 + 473x1_6 + 103x1_7 + 699x1_8 + 303x1_9 + 957x1_10 + 703x1_11 + 583x1_12 + 639x1_13 + 913x1_14 + 447x2_0 + 283x2_1 + 463x2_2 + 29x2_3 + 23x2_4 + 487x2_5 + 463x2_6 + 993x2_7 + 119x2_8 + 883x2_9 + 327x2_10 + 493x2_11 + 423x2_12 + 159x2_13 + 743x2_14 + 217x3_0 + 623x3_1 + 3x3_2 + 399x3_3 + 853x3_4 + 407x3_5 + 103x3_6 + 983x3_7 + 89x3_8 + 463x3_9 + 290x3_10 + 516x3_11 + 212x3_12 + 462x3_13 + 350x3_14 + 960x4_0 + 376x4_1 + 682x4_2 + 962x4_3 + 300x4_4 + 780x4_5 + 486x4_6 + 502x4_7 + 912x4_8 + 800x4_9 + 250x4_10 + 346x4_11 + 172x4_12 + 812x4_13 + 350x4_14 + 870x5_0 + 456x5_1 + 192x5_2 + 162x5_3 + 593x5_4 + 473x5_5 + 915x5_6 + 45x5_7 + 989x5_8 + 873x5_9 + 823x5_10 + 965x5_11 + 425x5_12 + 329x5_13 + 803x5_14 + 973x6_0 + 965x6_1 + 905x6_2 + 919x6_3 + 133x6_4 + 673x6_5 + 665x6_6 + 235x6_7 + 509x6_8 + 613x6_9 + 673x6_10 + 815x6_11 + 165x6_12 + 992x6_13 + 326x6_14 + 322x7_0 + 148x7_1 + 972x7_2 + 962x7_3 + 286x7_4 + 255x7_5 + 941x7_6 + 541x7_7 + 265x7_8 + 323x7_9 + 925x7_10 + 281x7_11 + 601x7_12 + 95x7_13 + 973x7_14 + 445x8_0 + 721x8_1 + 11x8_2 + 525x8_3 + 473x8_4 + 65x8_5 + 511x8_6 + 164x8_7 + 138x8_8 + 672x8_9 + 18x8_10 + 428x8_11 + 154x8_12 + 448x8_13 + 848x8_14 + 414x9_0 + 456x9_1 + 310x9_2 + 312x9_3 + 798x9_4 + 104x9_5 + 566x9_6 + 520x9_7 + 302x9_8 + 248x9_9 + 694x9_10 + 976x9_11 + 430x9_12 + 392x9_13 + 198x9_14 + 184x10_0 + 829x10_1 + 373x10_2 + 181x10_3 + 631x10_4 + 101x10_5 + 969x10_6 + 613x10_7 + 840x10_8 + 740x10_9 + 778x10_10 + 458x10_11 + 284x10_12 + 760x10_13 + 390x10_14 + 821x11_0 + 461x11_1 + 843x11_2 + 513x11_3 + 17x11_4 + 901x11_5 + 711x11_6 + 993x11_7 + 293x11_8 + 157x11_9 + 274x11_10 + 94x11_11 + 192x11_12 + 156x11_13 + 574x11_14 + 34x12_0 + 124x12_1 + 4x12_2 + 878x12_3 + 450x12_4 + 476x12_5 + 712x12_6 + 914x12_7 + 838x12_8 + 669x12_9 + 875x12_10 + 299x12_11 + 823x12_12 + 329x12_13 + 699x12_14 + 815x13_0 + 559x13_1 + 813x13_2 + 459x13_3 + 522x13_4 + 788x13_5 + 168x13_6 + 586x13_7 + 966x13_8 + 232x13_9 + 308x13_10 + 833x13_11 + 251x13_12 + 631x13_13 + 107x13_14 + 813x14_0 + 883x14_1 + 451x14_2 + 509x14_3 + 615x14_4 + 77x14_5 + 281x14_6 + 613x14_7 + 459x14_8 + 205x14_9 + 380x14_10 + 274x14_11 + 302x14_12 + 35x14_13 + 805x14_14
subject to
x0_0 + x0_1 + x0_2 + x0_3 + x0_4 + x0_5 + x0_6 + x0_7 + x0_8 + x0_9 + x0_10 + x0_11 + x0_12 + x0_13 + x0_14 = 1
x1_0 + x1_1 + x1_2 + x1_3 + x1_4 + x1_5 + x1_6 + x1_7 + x1_8 + x1_9 + x1_10 + x1_11 + x1_12 + x1_13 + x1_14 = 1
x2_0 + x2_1 + x2_2 + x2_3 + x2_4 + x2_5 + x2_6 + x2_7 + x2_8 + x2_9 + x2_10 + x2_11 + x2_12 + x2_13 + x2_14 = 1
x3_0 + x3_1 + x3_2 + x3_3 + x3_4 + x3_5 + x3_6 + x3_7 + x3_8 + x3_9 + x3_10 + x3_11 + x3_12 + x3_13 + x3_14 = 1
x4_0 + x4_1 + x4_2 + x4_3 + x4_4 + x4_5 + x4_6 + x4_7 + x4_8 + x4_9 + x4_10 + x4_11 + x4_12 + x4_13 + x4_14 = 1
x5_0 + x5_1 + x5_2 + x5_3 + x5_4 + x5_5 + x5_6 + x5_7 + x5_8 + x5_9 + x5_10 + x5_11 + x5_12 + x5_13 + x5_14 = 1
x6_0 + x6_1 + x6_2 + x6_3 + x6_4 + x6_5 + x6_6 + x6_7 + x6_8 + x6_9 + x6_10 + x6_11 + x6_12 + x6_13 + x6_14 = 1
x7_0 + x7_1 + x7_2 + x7_3 + x7_4 + x7_5 + x7_6 + x7_7 + x7_8 + x7_9 + x7_10 + x7_11 + x7_12 + x7_13 + x7_14 = 1
x8_0 + x8_1 + x8_2 + x8_3 + x8_4 + x8_5 + x8_6 + x8_7 + x8_8 + x8_9 + x8_10 + x8_11 + x8_12 + x8_13 + x8_14 = 1
x9_0 + x9_1 + x9_2 + x9_3 + x9_4 + x9_5 + x9_6 + x9_7 + x9_8 + x9_9 + x9_10 + x9_11 + x9_12 + x9_13 + x9_14 = 1
x10_0 + x10_1 + x10_2 + x10_3 + x10_4 + x10_5 + x10_6 + x10_7 + x10_8 + x10_9 + x10_10 + x10_11 + x10_12 + x10_13 + x10_14 = 1
x11_0 + x11_1 + x11_2 + x11_3 + x11_4 + x11_5 + x11_6 + x11_7 + x11_8 + x11_9 + x11_10 + x11_11 + x11_12 + x11_13 + x11_14 = 1
x12_0 + x12_1 + x12_2 + x12_3 + x12_4 + x12_5 + x12_6 + x12_7 + x12_8 + x12_9 + x12_10 + x12_11 + x12_12 + x12_13 + x12_14 = 1
x13_0 + x13_1 + x13_2 + x13_3 + x13_4 + x13_5 + x13_6 + x13_7 + x13_8 + x13_9 + x13_10 + x13_11 + x13_12 + x13_13 + x13_14 = 1
x14_0 + x14_1 + x14_2 + x14_3 + x14_4 + x14_5 + x14_6 + x14_7 + x14_8 + x14_9 + x14_10 + x14_11 + x14_12 + x14_13 + x14_14 = 1
x0_0 + x1_0 + x2_0 + x3_0 + x4_0 + x5_0 + x6_0 + x7_0 + x8_0 + x9_0 + x10_0 + x11_0 + x12_0 + x13_0 + x14_0 = 1
x0_1 + x1_1 + x2_1 + x3_1 + x4_1 + x5_1 + x6_1 + x7_1 + x8_1 + x9_1 + x10_1 + x11_1 + x12_1 + x13_1 + x14_1 = 1
x0_2 + x1_2 + x2_2 + x3_2 + x4_2 + x5_2 + x6_2 + x7_2 + x8_2 + x9_2 + x10_2 + x11_2 + x12_2 + x13_2 + x14_2 = 1
x0_3 + x1_3 + x2_3 + x3_3 + x4_3 + x5_3 + x6_3 + x7_3 + x8_3 + x9_3 + x10_3 + x11_3 + x12_3 + x13_3 + x14_3 = 1
x0_4 + x1_4 + x2_4 + x3_4 + x4_4 + x5_4 + x6_4 + x7_4 + x8_4 + x9_4 + x10_4 + x11_4 + x12_4 + x13_4 + x14_4 = 1
x0_5 + x1_5 + x2_5 + x3_5 + x4_5 + x5_5 + x6_5 + x7_5 + x8_5 + x9_5 + x10_5 + x11_5 + x12_5 + x13_5 + x14_5 = 1
x0_6 + x1_6 + x2_6 + x3_6 + x4_6 + x5_6 + x6_6 + x7_6 + x8_6 + x9_6 + x10_6 + x11_6 + x12_6 + x13_6 + x14_6 = 1
x0_7 + x1_7 + x2_7 + x3_7 + x4_7 + x5_7 + x6_7 + x7_7 + x8_7 + x9_7 + x10_7 + x11_7 + x12_7 + x13_7 + x14_7 = 1
x0_8 + x1_8 + x2_8 + x3_8 + x4_8 + x5_8 + x6_8 + x7_8 + x8_8 + x9_8 + x10_8 + x11_8 + x12_8 + x13_8 + x14_8 = 1
x0_9 + x1_9 + x2_9 + x3_9 + x4_9 + x5_9 + x6_9 + x7_9 + x8_9 + x9_9 + x10_9 + x11_9 + x12_9 + x13_9 + x14_9 = 1
x0_10 + x1_10 + x2_10 + x3_10 + x4_10 + x5_10 + x6_10 + x7_10 + x8_10 + x9_10 + x10_10 + x11_10 + x12_10 + x13_10 + x14_10 = 1
x0_11 + x1_11 + x2_11 + x3_11 + x4_11 + x5_11 + x6_11 + x7_11 + x8_11 + x9_11 + x10_11 + x11_11 + x12_11 + x13_11 + x14_11 = 1
x0_12 + x1_12 + x2_12 + x3_12 + x4_12 + x5_12 + x6_12 + x7_12 + x8_12 + x9_12 + x10_12 + x11_12 + x12_12 + x13_12 + x14_12 = 1
x0_13 + x1_13 + x2_13 + x3_13 + x4_13 + x5_13 + x6_13 + x7_13 + x8_13 + x9_13 + x10_13 + x11_13 + x12_13 + x13_13 + x14_13 = 1
x0_14 + x1_14 + x2_14 + x3_14 + x4_14 + x5_14 + x6_14 + x7_14 + x8_14 + x9_14 + x10_14 + x11_14 + x12_14 + x13_14 + x14_14 = 1
bounds
0 <= x0_0 <= 1
0 <= x0_1 <= 1
0 <= x0_2 <= 1
0 <= x0_3 <= 1
0 <= x0_4 <= 1
0 <= x0_5 <= 1
0 <= x0_6 <= 1
0 <= x0_7 <= 1
0 <= x0_8 <= 1
0 <= x0_9 <= 1
0 <= x0_10 <= 1
0 <= x0_11 <= 1
0 <= x0_12 <= 1
0 <= x0_13 <= 1
0 <= x0_14 <= 1
0 <= x1_0 <= 1
0 <= x1_1 <= 1
0 <= x1_2 <= 1
0 <= x1_3 <= 1
0 <= x1_4 <= 1
0 <= x1_5 <= 1
0 <= x1_6 <= 1
0 <= x1_7 <= 1
0 <= x1_8 <= 1
0 <= x1_9 <= 1
0 <= x1_10 <= 1
0 <= x1_11 <= 1
0 <= x1_12 <= 1
0 <= x1_13 <= 1
0 <= x1_14 <= 1
0 <= x2_0 <= 1
0 <= x2_1 <= 1
0 <= x2_2 <= 1
0 <= x2_3 <= 1
0 <= x2_4 <= 1
0 <= x2_5 <= 1
0 <= x2_6 <= 1
0 <= x2_7 <= 1
0 <= x2_8 <= 1
0 <= x2_9 <= 1
0 <= x2_10 <= 1
0 <= x2_11 <= 1
0 <= x2_12 <= 1
0 <= x2_13 <= 1
0 <= x2_14 <= 1
0 <= x3_0 <= 1
0 <= x3_1 <= 1
0 <= x3_2 <= 1
0 <= x3_3 <= 1
0 <= x3_4 <= 1
0 <= x3_5 <= 1
0 <= x3_6 <= 1
0 <= x3_7 <= 1
0 <= x3_8 <= 1
0 <= x3_9 <= 1
0 <= x3_10 <= 1
0 <= x3_11 <= 1
0 <= x3_12 <= 1
0 <= x3_13 <= 1
0 <= x3_14 <= 1
0 <= x4_0 <= 1
0 <= x4_1 <= 1
0 <= x4_2 <= 1
0 <= x4_3 <= 1
0 <= x4_4 <= 1
0 <= x4_5 <= 1
0 <= x4_6 <= 1
0 <= x4_7 <= 1
0 <= x4_8 <= 1
0 <= x4_9 <= 1
0 <= x4_10 <= 1
0 <= x4_11 <= 1
0 <= x4_12 <= 1
0 <= x4_13 <= 1
0 <= x4_14 <= 1
0 <= x5_0 <= 1
0 <= x5_1 <= 1
0 <= x5_2 <= 1
0 <= x5_3 <= 1
0 <= x5_4 <= 1
0 <= x5_5 <= 1
0 <= x5_6 <= 1
0 <= x5_7 <= 1
0 <= x5_8 <= 1
0 <= x5_9 <= 1
0 <= x5_10 <= 1
0 <= x5_11 <= 1
0 <= x5_12 <= 1
0 <= x5_13 <= 1
0 <= x5_14 <= 1
0 <= x6_0 <= 1
0 <= x6_1 <= 1
0 <= x6_2 <= 1
0 <= x6_3 <= 1
0 <= x6_4 <= 1
0 <= x6_5 <= 1
0 <= x6_6 <= 1
0 <= x6_7 <= 1
0 <= x6_8 <= 1
0 <= x6_9 <= 1
0 <= x6_10 <= 1
0 <= x6_11 <= 1
0 <= x6_12 <= 1
0 <= x6_13 <= 1
0 <= x6_14 <= 1
0 <= x7_0 <= 1
0 <= x7_1 <= 1
0 <= x7_2 <= 1
0 <= x7_3 <= 1
0 <= x7_4 <= 1
0 <= x7_5 <= 1
0 <= x7_6 <= 1
0 <= x7_7 <= 1
0 <= x7_8 <= 1
0 <= x7_9 <= 1
0 <= x7_10 <= 1
0 <= x7_11 <= 1
0 <= x7_12 <= 1
0 <= x7_13 <= 1
0 <= x7_14 <= 1
0 <= x8_0 <= 1
0 <= x8_1 <= 1
0 <= x8_2 <= 1
0 <= x8_3 <= 1
0 <= x8_4 <= 1
0 <= x8_5 <= 1
0 <= x8_6 <= 1
0 <= x8_7 <= 1
0 <= x8_8 <= 1
0 <= x8_9 <= 1
0 <= x8_10 <= 1
0 <= x8_11 <= 1
0 <= x8_12 <= 1
0 <= x8_13 <= 1
0 <= x8_14 <= 1
0 <= x9_0 <= 1
0 <= x9_1 <= 1
0 <= x9_2 <= 1
0 <= x9_3 <= 1
0 <= x9_4 <= 1
0 <= x9_5 <= 1
0 <= x9_6 <= 1
0 <= x9_7 <= 1
0 <= x9_8 <= 1
0 <= x9_9 <= 1
0 <= x9_10 <= 1
0 <= x9_11 <= 1
0 <= x9_12 <= 1
0 <= x9_13 <= 1
0 <= x9_14 <= 1
0 <= x10_0 <= 1
0 <= x10_1 <= 1
0 <= x10_2 <= 1
0 <= x10_3 <= 1
0 <= x10_4 <= 1
0 <= x10_5 <= 1
0 <= x10_6 <= 1
0 <= x10_7 <= 1
0 <= x10_8 <= 1
0 <= x10_9 <= 1
0 <= x10_10 <= 1
0 <= x10_11 <= 1
0 <= x10_12 <= 1
0 <= x10_13 <= 1
0 <= x10_14 <= 1
0 <= x11_0 <= 1
0 <= x11_1 <= 1
0 <= x11_2 <= 1
0 <= x11_3 <= 1
0 <= x11_4 <= 1
0 <= x11_5 <= 1
0 <= x11_6 <= 1
0 <= x11_7 <= 1
0 <= x11_8 <= 1
0 <= x11_9 <= 1
0 <= x11_10 <= 1
0 <= x11_11 <= 1
0 <= x11_12 <= 1
0 <= x11_13 <= 1
0 <= x11_14 <= 1
0 <= x12_0 <= 1
0 <= x12_1 <= 1
0 <= x12_2 <= 1
0 <= x12_3 <= 1
0 <= x12_4 <= 1
0 <= x12_5 <= 1
0 <= x12_6 <= 1
0 <= x12_7 <= 1
0 <= x12_8 <= 1
0 <= x12_9 <= 1
0 <= x12_10 <= 1
0 <= x12_11 <= 1
0 <= x12_12 <= 1
0 <= x12_13 <= 1
0 <= x12_14 <= 1
0 <= x13_0 <= 1
0 <= x13_1 <= 1
0 <= x13_2 <= 1
0 <= x13_3 <= 1
0 <= x13_4 <= 1
0 <= x13_5 <= 1
0 <= x13_6 <= 1
0 <= x13_7 <= 1
0 <= x13_8 <= 1
0 <= x13_9 <= 1
0 <= x13_10 <= 1
0 <= x13_11 <= 1
0 <= x13_12 <= 1
0 <= x13_13 <= 1
0 <= x13_14 <= 1
0 <= x14_0 <= 1
0 <= x14_1 <= 1
0 <= x14_2 <= 1
0 <= x14_3 <= 1
0 <= x14_4 <= 1
0 <= x14_5 <= 1
0 <= x14_6 <= 1
0 <= x14_7 <= 1
0 <= x14_8 <= 1
0 <= x14_9 <= 1
0 <= x14_10 <= 1
0 <= x14_11 <= 1
0 <= x14_12 <= 1
0 <= x14_13 <= 1
0 <= x14_14 <= 1
integer
x0_0
x0_1
x0_2
x0_3
x0_4
x0_5
x0_6
x0_7
x0_8
x0_9
x0_10
x0_11
x0_12
x0_13
x0_14
x1_0
x1_1
x1_2
x1_3
x1_4
x1_5
x1_6
x1_7
x1_8
x1_9
x1_10
x1_11
x1_12
x1_13
x1_14
x2_0
x2_1
x2_2
x2_3
x2_4
x2_5
x2_6
x2_7
x2_8
x2_9
x2_10
x2_11
x2_12
x2_13
x2_14
x3_0
x3_1
x3_2
x3_3
x3_4
x3_5
x3_6
x3_7
x3_8
x3_9
x3_10
x3_11
x3_12
x3_13
x3_14
x4_0
x4_1
x4_2
x4_3
x4_4
x4_5
x4_6
x4_7
x4_8
x4_9
x4_10
x4_11
x4_12
x4_13
x4_14
x5_0
x5_1
x5_2
x5_3
x5_4
x5_5
x5_6
x5_7
x5_8
x5_9
x5_10
x5_11
x5_12
x5_13
x5_14
x6_0
x6_1
x6_2
x6_3
x6_4
x6_5
x6_6
x6_7
x6_8
x6_9
x6_10
x6_11
x6_12
x6_13
x6_14
x7_0
x7_1
x7_2
x7_3
x7_4
x7_5
x7_6
x7_7
x7_8
x7_9
x7_10
x7_11
x7_12
x7_13
x7_14
x8_0
x8_1
x8_2
x8_3
x8_4
x8_5
x8_6
x8_7
x8_8
x8_9
x8_10
x8_11
x8_12
x8_13
x8_14
x9_0
x9_1
x9_2
x9_3
x9_4
x9_5
x9_6
x9_7
x9_8
x9_9
x9_10
x9_11
x9_12
x9_13
x9_14
x10_0
x10_1
x10_2
x10_3
x10_4
x10_5
x10_6
x10_7
x10_8
x10_9
x10_10
x10_11
x10_12
x10_13
x10_14
x11_0
x11_1
x11_2
x11_3
x11_4
x11_5
x11_6
x11_7
x11_8
x11_9
x11_10
x11_11
x11_12
x11_13
x11_14
x12_0
x12_1
x12_2
x12_3
x12_4
x12_5
x12_6
x12_7
x12_8
x12_9
x12_10
x12_11
x12_12
x12_13
x12_14
x13_0
x13_1
x13_2
x13_3
x13_4
x13_5
x13_6
x13_7
x13_8
x13_9
x13_10
x13_11
x13_12
x13_13
x13_14
x14_0
x14_1
x14_2
x14_3
x14_4
x14_5
x14_6
x14_7
x14_8
x14_9
x14_10
x14_11
x14_12
x14_13
x14_14
end